NAME 
ROWS
 N  OBJ
 L  R0      
 L  R1      
 E  R2      
COLUMNS
    MARKER    'MARKER'                 'INTORG'
    I0(3)     OBJ       -322
    I0(3)     R0        -26
    I0(3)     R1        -496
    I0(3)     R2        740
    I1(3)     OBJ       -73
    I1(3)     R0        -632
    I1(3)     R1        -778
    I1(3)     R2        69
    I2(3)     OBJ       -404
    I2(3)     R0        -394
    I2(3)     R1        -927
    I2(3)     R2        172
    I3(3)     OBJ       -195
    I3(3)     R0        -318
    I3(3)     R1        -169
    I3(3)     R2        438
    I4(3)     OBJ       -922
    I4(3)     R0        -185
    I4(3)     R1        -523
    I4(3)     R2        465
    I5(3)     OBJ       -809
    I5(3)     R0        -623
    I5(3)     R1        -46
    I5(3)     R2        915
    I6(3)     OBJ       -737
    I6(3)     R0        -989
    I6(3)     R1        -168
    I6(3)     R2        57
    I7(3)     OBJ       -677
    I7(3)     R0        -222
    I7(3)     R1        -36
    I7(3)     R2        670
    I8(3)     OBJ       -851
    I8(3)     R0        -227
    I8(3)     R1        -785
    I8(3)     R2        395
    I9(3)     OBJ       -17
    I9(3)     R0        -625
    I9(3)     R1        -40
    I9(3)     R2        352
    I10(3)    OBJ       -483
    I10(3)    R0        -993
    I10(3)    R1        -380
    I10(3)    R2        725
    I11(3)    OBJ       -872
    I11(3)    R0        -549
    I11(3)    R1        -811
    I11(3)    R2        891
    I12(3)    OBJ       -673
    I12(3)    R0        -698
    I12(3)    R1        -671
    I12(3)    R2        129
    I13(3)    OBJ       -746
    I13(3)    R0        -397
    I13(3)    R1        -774
    I13(3)    R2        651
    I14(3)    OBJ       -120
    I14(3)    R0        -744
    I14(3)    R1        -128
    I14(3)    R2        59
    I15(3)    OBJ       -1000
    I15(3)    R0        -619
    I15(3)    R1        -856
    I15(3)    R2        652
    I16(3)    OBJ       -514
    I16(3)    R0        -205
    I16(3)    R1        -397
    I16(3)    R2        697
    I17(3)    OBJ       -739
    I17(3)    R0        -480
    I17(3)    R1        -116
    I17(3)    R2        227
    I18(3)    OBJ       -872
    I18(3)    R0        -296
    I18(3)    R1        -77
    I18(3)    R2        687
    I19(3)    OBJ       -345
    I19(3)    R0        -56
    I19(3)    R1        -623
    I19(3)    R2        482
    I20(1)    R2        1
    MARKER    'MARKER'                 'INTEND'
RHS
    RHS1      R0        -5939
    RHS1      R1        -6462
    RHS1      R2        4736
BOUNDS
 UP BND1      I0(3)     1
 UP BND1      I1(3)     1
 UP BND1      I2(3)     1
 UP BND1      I3(3)     1
 UP BND1      I4(3)     1
 UP BND1      I5(3)     1
 UP BND1      I6(3)     1
 UP BND1      I7(3)     1
 UP BND1      I8(3)     1
 UP BND1      I9(3)     1
 UP BND1      I10(3)    1
 UP BND1      I11(3)    1
 UP BND1      I12(3)    1
 UP BND1      I13(3)    1
 UP BND1      I14(3)    1
 UP BND1      I15(3)    1
 UP BND1      I16(3)    1
 UP BND1      I17(3)    1
 UP BND1      I18(3)    1
 UP BND1      I19(3)    1
 LI BND1      I20(1)    0
ENDATA
